p cnf 671 1614
c ind 663 657 549 660 646 651 652 661 667 665 0
c ind 668 664 653 666 632 551 662 669 654 658 0
c ind 645 637 553 659 634 569 633 649 650 565 0
c ind 566 586 600 630 587 605 643 648 602 647 0
c ind 559 554 558 556 601 555 568 557 655 635 0
c ind 644 656 639 590 574 593 606 616 613 629 0
c ind 638 641 636 615 642 575 614 620 617 618 0
c ind 609 640 603 580 577 619 622 594 597 598 0
c ind 624 627 623 626 621 582 604 628 579 591 0
c ind 599 625 560 612 573 570 581 592 595 596 0
c ind 607 564 572 611 631 585 563 610 583 561 0
c ind 588 578 567 550 576 562 584 608 571 589 0
c ind 552 1 0
c ret 373 498 499 500 501 502 503 504 374 505 0
c ret 506 410 411 507 508 509 510 511 512 412 0
c ret 513 514 515 375 516 517 518 519 520 521 0
c ret 522 413 414 376 523 524 525 526 527 528 0
c ret 529 530 531 532 533 534 535 377 536 537 0
c ret 538 539 540 541 542 543 544 545 546 547 0
c ret 548 378 379 415 380 416 417 418 381 365 0
c ret 382 419 420 421 383 384 422 385 423 386 0
c ret 424 387 425 426 388 366 389 427 428 390 0
c ret 429 430 431 432 391 433 434 392 435 436 0
c ret 393 437 438 394 439 395 440 441 367 442 0
c ret 443 444 445 446 447 448 449 450 396 397 0
c ret 398 399 451 400 401 452 453 368 402 454 0
c ret 403 455 456 457 458 369 459 460 461 462 0
c ret 463 464 465 466 467 370 468 469 470 471 0
c ret 472 473 474 475 404 405 476 477 478 406 0
c ret 479 407 371 480 481 482 483 484 408 485 0
c ret 409 486 487 488 489 372 490 491 492 493 0
c ret 494 495 496 497 0
2 3 -45 182 184 0
-2 45 0
-2 -184 0
-2 -3 0
-2 -182 0
3 -4 366 0
3 -4 -9 -26 0
-3 4 0
-3 26 -366 0
-3 9 -366 0
4 -5 -6 0
-4 5 0
-4 6 0
5 421 -469 0
5 -469 -470 0
-5 469 0
-5 -421 470 0
6 -370 -516 0
6 -7 370 0
-6 7 370 0
-6 -370 516 0
7 -372 -495 0
7 -8 372 0
-7 8 372 0
-7 -372 495 0
8 -374 -471 0
8 374 -472 0
-8 374 472 0
-8 -374 471 0
9 -24 -370 0
9 10 370 0
-9 -10 370 0
-9 24 -370 0
10 -21 -372 0
10 11 372 0
-10 -11 372 0
-10 21 -372 0
11 -14 -374 0
11 12 374 0
-11 -12 374 0
-11 14 -374 0
12 -392 -413 0
12 -13 -413 0
-12 413 0
-12 13 392 0
13 -385 -386 -414 0
-13 385 0
-13 386 0
-13 414 0
12 14 15 0
14 -15 442 0
-12 -14 15 0
-14 -15 -442 0
15 16 393 0
-15 -393 0
-15 -16 0
16 17 -443 0
-16 443 0
-16 -17 0
17 18 446 0
17 18 447 0
-17 -18 0
-17 -446 -447 0
18 19 -20 393 443 0
-18 20 0
-18 -19 0
-18 -393 0
-18 -443 0
19 394 403 -450 0
-19 450 0
-19 -403 0
-19 -394 0
20 -444 446 447 0
-20 444 0
-20 -447 0
-20 -446 0
21 -22 -467 0
11 21 22 0
-11 -21 22 0
-21 -22 467 0
16 22 -23 0
-16 -22 0
-22 23 0
23 374 393 0
-23 -374 0
-23 -393 0
10 24 25 0
24 -25 493 0
-10 -24 25 0
-24 -25 -493 0
16 -23 25 372 0
23 -25 0
-16 -25 0
-25 -372 0
26 39 528 534 0
26 -27 39 534 0
-26 -39 0
-26 -534 0
-26 27 -528 0
27 34 524 526 0
27 -28 34 524 0
-27 -524 0
-27 -34 0
-27 28 -526 0
28 -370 501 0
28 -29 370 0
-28 -370 -501 0
-28 29 370 0
29 -372 478 0
29 -30 372 0
-29 -372 -478 0
-29 30 372 0
30 -374 453 0
30 -31 374 0
-30 -374 -453 0
-30 31 374 0
31 -33 400 0
31 -33 -411 0
31 32 -33 0
-31 33 0
-31 -32 -400 411 0
32 430 432 433 -434 0
-32 434 0
-32 -433 0
-32 -430 0
-32 -432 0
33 432 433 0
33 411 430 0
33 430 433 0
33 411 432 0
-33 -430 -432 0
-33 -411 -433 0
34 35 -501 0
34 35 -525 0
-34 -35 0
-34 501 525 0
35 36 370 0
35 -370 478 500 0
-35 -370 -478 0
-35 -36 370 0
-35 -370 -500 0
36 -372 -453 0
36 37 372 0
36 -372 -477 0
-36 -37 372 0
-36 -372 453 477 0
37 -38 374 0
-37 -374 0
-37 38 0
38 -411 430 0
38 411 429 0
-38 411 -429 0
-38 -411 -430 0
39 -370 -498 0
39 40 370 0
-39 -370 498 0
-39 -40 370 0
40 -372 475 0
40 -41 372 0
-40 -372 -475 0
-40 41 372 0
41 -374 451 0
41 -42 374 0
-41 -374 -451 0
-41 42 374 0
42 43 382 0
42 43 404 405 0
-42 -43 0
-42 -382 -405 0
-42 -382 -404 0
43 44 383 -404 -405 0
-43 -383 0
-43 -44 0
-43 405 0
-43 404 0
44 -406 -407 0
-44 406 0
-44 407 0
45 -55 -69 0
45 46 -69 370 0
-45 69 0
-45 -46 55 0
-45 55 -370 0
46 47 54 0
10 46 47 -50 0
-46 -47 0
-10 -46 -54 0
-46 50 -54 0
47 -48 494 497 0
47 48 49 494 -497 0
-47 -48 -497 0
-47 48 -49 0
-47 -494 0
-47 48 497 0
48 372 374 0
-48 -372 0
-48 -374 0
-5 -7 49 0
5 -49 0
7 -49 0
-40 50 -51 496 0
-40 50 487 496 0
40 -50 0
-50 -496 0
-50 51 -487 0
51 52 478 485 0
-29 51 52 485 0
-51 -52 0
-51 -485 0
29 -51 -478 0
52 53 -453 0
52 53 -477 0
-52 -53 0
-52 453 477 0
-37 53 372 0
-53 -372 0
37 -53 0
48 -49 54 -494 0
-54 494 0
-48 -54 0
49 -54 0
-24 55 -56 -61 -66 0
-55 66 0
24 -55 0
-55 61 0
-55 56 0
56 57 60 0
-51 56 57 0
-56 -57 0
51 -56 -60 0
57 58 487 0
-57 -487 0
-57 -58 0
58 -59 -478 0
58 478 489 0
-58 478 -489 0
-58 59 -478 0
59 410 411 0
59 398 -411 0
-59 -410 411 0
-59 -398 -411 0
36 60 486 0
60 478 486 0
-60 -486 0
-36 -60 -478 0
61 62 -64 0
-61 -62 0
-61 64 0
62 63 490 0
62 -372 490 0
-62 -490 0
-62 -63 372 0
63 374 389 0
-63 -374 0
-63 -389 0
48 64 0
40 64 65 0
64 65 384 0
-48 -64 -65 0
-40 -48 -64 -384 0
65 -419 420 -421 0
-65 419 0
-65 -420 0
-65 421 0
-48 65 66 67 -370 0
48 -66 0
-66 -67 0
-66 370 0
-65 -66 0
59 67 487 -488 0
59 67 68 487 0
-67 -487 0
-59 -67 0
-67 -68 488 0
68 453 477 0
-68 -453 0
-68 -477 0
-9 69 71 -87 0
69 -70 71 -87 0
-69 87 0
-69 -71 0
9 -69 70 0
-23 70 370 372 0
23 -70 0
-70 -372 0
-70 -370 0
71 78 -372 0
71 72 74 78 0
-71 -78 0
-71 -72 372 0
-71 -74 372 0
72 374 468 474 0
72 73 -374 468 -474 0
-72 -374 474 0
-72 -73 -474 0
-72 -468 0
-72 374 -474 0
-5 73 -374 -471 0
-5 73 374 -472 0
5 -73 0
-73 -374 471 0
-73 374 472 0
-73 74 75 -374 -468 0
73 -74 0
-74 -75 0
-74 374 0
-74 468 0
-11 75 -77 462 0
-11 75 -76 -77 0
-75 77 0
11 -75 0
-75 76 -462 0
-37 76 453 460 0
-30 -37 76 460 0
37 -76 0
-76 -460 0
30 -76 -453 0
-41 77 473 0
-77 -473 0
41 -77 0
21 78 -79 82 -84 0
-78 79 0
-78 -82 0
-21 -78 0
-78 84 0
-76 79 -80 0
79 81 -462 0
-76 79 -462 0
79 -80 81 0
76 -79 -81 0
-79 80 462 0
-59 80 -453 0
80 453 463 0
-80 453 -463 0
59 -80 -453 0
-37 81 461 0
81 453 461 0
-81 -461 0
37 -81 -453 0
-65 82 374 0
82 -83 374 0
-82 -374 0
65 -82 83 0
-42 83 -384 0
-83 384 0
42 -83 0
84 85 86 -372 374 0
-84 -86 0
-84 -85 0
-84 372 0
-84 -374 0
59 85 462 0
-85 -462 0
-59 -85 0
63 86 464 0
-86 -464 0
-63 -86 0
10 87 -89 -94 0
87 -88 -89 -94 0
-87 94 0
-87 89 0
-10 -87 88 0
-23 88 372 0
-88 -372 0
23 -88 0
27 89 90 93 0
-27 89 -91 -93 0
89 90 -91 -93 0
-89 91 -93 0
-27 -89 93 0
27 -89 -90 0
-35 90 527 0
90 526 527 0
-90 -527 0
35 -90 -526 0
91 92 501 508 0
-28 91 92 508 0
-91 -92 0
-91 -508 0
28 -91 -501 0
35 92 -478 0
35 92 -500 0
-35 -92 0
-92 478 500 0
-35 93 509 0
93 501 509 0
-93 -509 0
35 -93 -501 0
91 94 -96 -178 0
94 -95 -96 -178 0
-94 178 0
-94 96 0
-91 -94 95 0
-60 95 370 0
-95 -370 0
60 -95 0
-11 -56 96 -97 0
-23 -56 96 -97 0
-96 97 0
56 -96 0
11 23 -96 0
-51 97 -98 -168 0
95 97 -98 -168 0
-97 168 0
-97 98 0
51 -95 -97 0
-64 -79 98 -99 -164 0
-98 164 0
64 -98 0
-98 99 0
79 -98 0
99 -100 -118 -128 -143 0
-99 143 0
-99 100 0
-99 128 0
-99 118 0
100 -101 -106 -109 -112 0
-100 112 0
-100 101 0
-100 109 0
-100 106 0
80 101 102 -104 0
80 101 102 389 0
-101 -102 0
-80 -101 0
-101 104 -389 0
59 102 510 -511 0
59 102 103 510 0
-102 -510 0
-59 -102 0
-102 -103 511 0
103 478 500 0
-103 -478 0
-103 -500 0
104 105 -388 -408 0
104 105 387 -408 0
-104 408 0
-104 -105 0
-104 -387 388 0
105 390 -391 0
105 390 409 0
-105 -390 0
-105 391 -409 0
-59 106 107 0
106 107 -108 0
106 107 -528 0
-106 -107 0
59 -106 108 528 0
-59 107 -526 0
107 526 530 0
-107 526 -530 0
59 -107 -526 0
108 501 525 529 0
-108 -501 0
-108 -529 0
-108 -525 0
109 111 -537 0
109 -110 111 531 0
-109 -111 0
-109 -531 537 0
-109 110 537 0
-63 110 370 372 0
63 -110 0
-110 -372 0
-110 -370 0
-59 111 -501 0
111 501 512 0
-111 501 -512 0
59 -111 -501 0
58 -110 112 -115 0
58 112 -113 -115 0
-58 -112 0
-112 115 0
110 -112 113 0
113 114 -504 -513 -520 0
-113 520 0
-113 -114 0
-113 504 0
-113 513 0
114 370 490 0
-114 -370 0
-114 -490 0
67 115 -116 0
67 115 377 0
-67 -115 0
-115 116 -377 0
116 -379 -380 0
116 379 381 0
116 117 -379 0
-116 379 -381 0
-116 -117 -379 380 0
117 -376 378 0
-117 376 0
-117 -378 0
118 -119 126 -510 0
-58 118 -119 126 0
-118 119 0
-118 -126 0
58 -118 510 0
62 85 119 -120 -124 0
-62 -119 0
-119 124 0
-119 120 0
-85 -119 0
120 121 123 -372 0
86 120 121 123 0
-120 -123 0
-120 -121 0
-86 -120 372 0
121 -122 -393 -394 395 0
-121 122 0
-121 393 0
-121 394 0
-121 -395 0
122 -385 -392 0
-122 385 0
-122 392 0
59 123 436 0
59 123 397 -412 0
-59 -123 0
-123 -397 -436 0
-123 412 -436 0
124 -125 -531 0
-110 124 -481 0
124 -481 -531 0
-110 124 -125 0
110 -124 531 0
-124 125 481 0
-63 125 372 0
-125 -372 0
63 -125 0
59 126 436 -437 0
59 126 127 436 0
-126 -436 0
-59 -126 0
-126 -127 437 0
127 431 432 0
127 -411 432 0
127 399 411 -432 0
-127 -399 -432 0
-127 -411 -432 0
-127 411 -431 432 0
128 -130 -139 -370 0
128 129 -130 -139 0
-128 139 0
-128 130 0
-128 -129 370 0
-48 -65 129 0
48 -129 0
65 -129 0
86 130 -131 133 -134 0
-130 131 0
-130 -133 0
-86 -130 0
-130 134 0
131 132 -481 0
131 132 372 464 0
-131 -132 0
-131 -464 481 0
-131 -372 481 0
132 -389 424 0
132 -415 424 0
-132 -424 0
-132 389 415 0
133 -370 504 0
133 -490 504 0
-133 -504 0
-133 370 490 0
134 135 136 -137 0
134 136 -137 -374 0
-134 137 0
-134 -136 0
-134 -135 374 0
135 -389 439 0
-135 389 0
-135 -439 0
136 382 -383 -384 0
-136 384 0
-136 383 0
-136 -382 0
137 138 398 0
137 138 -397 0
137 138 399 0
-137 -138 0
-137 397 -398 -399 0
-48 138 370 0
-138 -370 0
48 -138 0
139 -140 142 -456 0
-63 139 -140 142 0
-139 140 0
-139 -142 0
63 -139 456 0
140 141 -456 0
140 141 374 439 0
-140 -141 0
-140 -439 456 0
-140 -374 456 0
141 -365 -536 0
141 365 536 0
-141 365 -536 0
-141 -365 536 0
142 385 -393 396 0
142 385 392 -393 0
-142 -385 0
-142 393 0
-142 -392 -396 0
143 -144 -150 -153 -156 0
-143 156 0
-143 144 0
-143 153 0
-143 150 0
144 -145 -146 -147 0
-144 145 0
-144 146 0
-144 147 0
145 367 401 0
145 -400 519 0
145 367 -400 0
145 401 519 0
-145 -367 -519 0
-145 400 -401 0
146 -386 402 0
146 385 -397 0
146 -386 -397 0
146 385 402 0
-146 397 -402 0
-146 -385 386 0
147 148 149 369 -503 0
147 148 149 -369 503 0
-147 -148 0
-147 369 503 0
-147 -149 0
-147 -369 -503 0
148 375 423 0
-148 -375 0
-148 -423 0
149 373 455 0
-149 -373 0
-149 -455 0
150 151 152 371 -480 0
150 151 152 -371 480 0
-150 -151 0
-150 371 480 0
-150 -152 0
-150 -371 -480 0
151 -373 -455 0
-151 373 0
-151 455 0
152 367 519 0
-152 -367 0
-152 -519 0
153 154 -155 -385 0
153 154 -155 -394 0
-153 155 0
-153 -154 0
-153 385 394 0
154 -402 436 0
-154 402 0
-154 -436 0
155 -415 513 0
155 389 -520 0
155 389 513 0
155 -415 -520 0
-155 -389 415 0
-155 -513 520 0
156 -157 -160 -162 -163 0
-156 163 0
-156 157 0
-156 162 0
-156 160 0
59 65 157 -158 -159 0
-59 -157 0
-157 159 0
-157 158 0
-65 -157 0
158 519 -523 -535 536 0
-158 -519 0
-158 -536 0
-158 535 0
-158 523 0
159 -502 503 -507 -518 0
-159 518 0
-159 502 0
-159 507 0
-159 -503 0
135 160 -161 423 0
135 160 -161 375 0
-160 161 0
-135 -160 0
-160 -375 -423 0
161 -394 -402 -422 0
161 -402 -403 -422 0
-161 422 0
-161 402 0
-161 394 403 0
162 -459 -479 480 -484 0
-162 484 0
-162 459 0
-162 479 0
-162 -480 0
163 423 -427 -454 455 0
-163 -423 0
-163 -455 0
-163 454 0
-163 427 0
164 165 400 0
164 165 166 167 0
-164 -165 0
-164 -167 -400 0
-164 -166 -400 0
4 165 -366 0
4 165 -368 0
-4 -165 0
-165 366 368 0
-38 166 435 0
-166 -435 0
38 -166 0
-31 -38 167 428 0
-31 -127 167 428 0
-167 -428 0
31 -167 0
38 127 -167 0
40 168 169 -172 0
168 169 170 -172 0
-168 172 0
-168 -169 0
-40 -168 -170 0
-76 169 -435 0
-169 435 0
76 -169 0
170 -171 -384 0
-170 384 0
-170 171 0
171 370 372 374 0
-171 -370 0
-171 -374 0
-171 -372 0
82 172 -173 -175 177 0
-82 -172 0
-172 -177 0
-172 175 0
-172 173 0
83 173 174 -528 0
83 -107 173 174 0
-173 -174 0
-83 -173 0
107 -173 528 0
80 174 487 0
-174 -487 0
-80 -174 0
57 175 -176 -510 0
57 -111 175 -176 0
-175 176 0
-57 -175 0
111 -175 510 0
12 176 -528 0
-111 176 393 0
176 393 -528 0
12 -111 176 0
111 -176 528 0
-12 -176 -393 0
-166 167 177 0
166 -177 0
-167 -177 0
51 178 -179 0
-81 178 -179 372 0
-178 179 0
-51 81 -178 0
-51 -178 -372 0
-61 179 374 0
-14 -61 179 -180 0
61 -179 0
-179 180 -374 0
14 -179 -374 0
83 177 180 -181 0
-180 181 0
-177 -180 0
-83 -180 0
65 135 181 -436 0
-59 65 135 181 0
-135 -181 0
-65 -181 0
59 -181 436 0
-4 182 368 0
-4 -9 182 -183 0
4 -182 0
-182 183 -368 0
9 -182 -368 0
39 -91 183 517 0
39 183 510 517 0
-39 -183 0
-183 -517 0
91 -183 -510 0
-9 184 185 -199 0
9 184 -185 -198 -199 0
-184 -185 198 0
9 -184 185 0
-184 199 0
-9 -184 -185 0
185 -196 -550 0
185 186 550 0
-185 -186 550 0
-185 196 -550 0
186 -189 -552 0
186 187 552 0
-186 -187 552 0
-186 189 -552 0
187 -570 -591 0
187 -188 -591 0
-187 591 0
-187 188 570 0
188 -563 -564 -592 0
-188 563 0
-188 564 0
-188 592 0
187 189 190 0
189 -190 620 0
-187 -189 190 0
-189 -190 -620 0
190 191 571 0
-190 -571 0
-190 -191 0
191 192 -621 0
-191 621 0
-191 -192 0
192 193 624 0
192 193 625 0
-192 -193 0
-192 -624 -625 0
193 194 -195 571 621 0
-193 195 0
-193 -194 0
-193 -571 0
-193 -621 0
194 572 581 -628 0
-194 628 0
-194 -581 0
-194 -572 0
195 -622 624 625 0
-195 622 0
-195 -625 0
-195 -624 0
196 -197 -645 0
186 196 197 0
-186 -196 197 0
-196 -197 645 0
191 197 552 571 0
-197 -552 0
-191 -197 0
-197 -571 0
198 550 552 571 0
-198 -550 0
-198 -571 0
-198 -552 0
199 -217 -229 0
199 200 -229 550 0
-199 229 0
-199 -200 217 0
-199 217 -550 0
200 201 216 0
-186 200 201 -204 0
-200 -201 0
186 -200 -216 0
-200 204 -216 0
201 552 646 652 0
201 202 -552 646 -652 0
-201 -552 652 0
-201 -202 -652 0
-201 -646 0
-201 552 -652 0
202 -203 599 -647 0
202 -203 -647 -648 0
-202 203 0
-202 647 0
-202 -599 648 0
203 -552 -649 0
203 552 -650 0
-203 552 650 0
-203 -552 649 0
204 -212 640 651 0
204 -205 -212 651 0
-204 212 0
-204 -651 0
-204 205 -640 0
205 -210 631 638 0
205 206 -210 638 0
-205 210 0
-205 -638 0
-205 -206 -631 0
206 207 552 0
-206 -552 0
-206 -207 0
207 -209 578 0
207 -209 -589 0
207 208 -209 0
-207 209 0
-207 -208 -578 589 0
208 608 610 611 -612 0
-208 612 0
-208 -611 0
-208 -608 0
-208 -610 0
209 610 611 0
209 589 608 0
209 608 611 0
209 589 610 0
-209 -608 -610 0
-209 -589 -611 0
210 -211 552 0
-210 -552 0
-210 211 0
211 -589 608 0
211 589 607 0
-211 589 -607 0
-211 -589 -608 0
212 -552 629 0
212 -213 552 0
-212 -552 -629 0
-212 213 552 0
213 214 560 0
213 214 582 583 0
-213 -214 0
-213 -560 -583 0
-213 -560 -582 0
214 215 561 -582 -583 0
-214 -561 0
-214 -215 0
-214 583 0
-214 582 0
215 -584 -585 0
-215 584 0
-215 585 0
-202 216 -552 -646 0
-216 552 0
-216 646 0
202 -216 0
196 217 -218 223 -226 0
-217 218 0
-217 -223 0
-196 -217 0
-217 226 0
218 219 222 0
-205 218 219 0
-218 -219 0
205 -218 -222 0
219 220 640 0
-219 -640 0
-219 -220 0
220 -221 -631 0
220 631 641 0
-220 631 -641 0
-220 221 -631 0
221 588 589 0
221 576 -589 0
-221 -588 589 0
-221 -576 -589 0
-210 222 639 0
222 631 639 0
-222 -639 0
210 -222 -631 0
223 224 552 0
-223 -552 0
-223 -224 0
224 225 599 0
224 225 -598 0
224 225 597 0
-224 -225 0
-224 -597 598 -599 0
-213 225 -562 0
-225 562 0
213 -225 0
226 227 228 -550 552 0
-226 -228 0
-226 -227 0
-226 550 0
-226 -552 0
221 227 640 0
-227 -640 0
-221 -227 0
228 -552 642 0
228 -567 642 0
-228 -642 0
-228 552 567 0
39 229 -230 -231 -237 0
-39 229 230 -231 -237 0
-229 237 0
39 -229 230 0
-229 231 0
-39 -229 -230 0
230 -550 653 0
-212 230 550 0
-230 -550 -653 0
212 -230 550 0
231 -232 -233 0
-186 231 236 0
-186 231 -233 0
231 -232 236 0
-231 233 -236 0
186 -231 232 0
232 552 571 0
-232 -552 0
-232 -571 0
-205 233 550 0
233 234 -550 654 0
-205 233 -234 0
205 -233 -234 0
205 -233 550 0
-233 234 -550 -654 0
234 235 -656 0
-234 656 0
-234 -235 0
206 235 552 0
206 235 631 0
-206 -235 0
-235 -552 -631 0
-222 236 550 0
-236 -550 0
222 -236 0
-27 237 -238 -247 -364 0
27 237 -238 -247 364 0
-237 238 0
27 -237 -364 0
-237 247 0
-27 -237 364 0
-28 238 -239 240 0
28 238 239 240 0
-238 -240 0
-28 -238 239 0
28 -238 -239 0
239 -550 656 0
-235 239 550 0
-239 -550 -656 0
235 -239 550 0
240 -241 -552 0
240 245 -552 0
189 240 -552 0
-240 552 0
-189 -240 241 -245 0
241 -242 243 0
-241 242 0
-241 -243 0
-211 242 613 0
-242 -613 0
211 -242 0
-207 -211 243 606 0
-207 243 -244 606 0
-243 -606 0
207 -243 0
211 -243 244 0
244 609 610 0
244 -589 610 0
244 577 589 -610 0
-244 -577 -610 0
-244 -589 -610 0
-244 589 -609 610 0
-224 245 246 -617 0
-224 245 246 567 0
224 -245 0
-245 -246 0
-245 -567 617 0
221 246 614 0
-246 -614 0
-221 -246 0
90 236 247 -248 -349 0
-90 -236 247 -248 -349 0
-247 349 0
-90 236 -247 0
-247 248 0
90 -236 -247 0
205 248 -249 -250 0
-242 248 -249 -250 0
-248 250 0
-248 249 0
-205 242 -248 0
-243 249 578 0
242 243 249 0
249 -552 578 0
-242 -249 -578 0
-243 -249 -578 0
-242 243 -249 552 0
250 -251 -307 -314 -319 0
-250 319 0
-250 251 0
-250 314 0
-250 307 0
251 -252 -283 -290 -299 0
-251 299 0
-251 252 0
-251 290 0
-251 283 0
252 -253 -272 -277 -279 0
-252 279 0
-252 253 0
-252 277 0
-252 272 0
253 -254 -265 -267 -270 0
-253 270 0
-253 254 0
-253 267 0
-253 265 0
254 -255 -260 -263 -264 0
-254 264 0
-254 255 0
-254 263 0
-254 260 0
255 -256 -259 402 580 0
255 -256 -259 -402 -580 0
-255 259 0
-255 -402 580 0
-255 256 0
-255 402 -580 0
256 257 258 528 640 0
256 257 258 -528 -640 0
-256 -257 0
-256 -528 640 0
-256 -258 0
-256 528 -640 0
257 575 -580 0
-257 -575 0
-257 580 0
258 -551 -633 0
-258 551 0
-258 633 0
259 -537 546 0
259 -656 659 0
259 546 659 0
259 -537 -656 0
-259 -546 656 0
-259 537 -659 0
260 261 -262 599 0
260 261 -262 -421 0
-260 262 0
-260 -261 0
-260 421 -599 0
261 546 -656 0
-261 -546 0
-261 656 0
262 537 580 0
262 -614 -659 0
262 580 -659 0
262 537 -614 0
-262 -580 614 0
-262 -537 659 0
263 -551 579 0
263 -578 -633 0
263 -551 -578 0
263 579 -633 0
-263 578 -579 0
-263 551 633 0
264 421 469 0
264 -599 -647 0
264 421 -647 0
264 469 -599 0
-264 -421 599 0
-264 -469 647 0
108 221 228 265 266 0
-228 -265 0
-265 -266 0
-108 -265 0
-221 -265 0
266 -597 598 -599 0
-266 597 0
-266 -598 0
-266 599 0
267 268 -269 450 0
267 268 -269 -628 0
-267 269 0
-267 -268 0
-267 -450 628 0
268 572 581 0
-268 -572 0
-268 -581 0
269 540 -580 -600 0
269 -580 -600 -662 0
-269 600 0
-269 580 0
-269 -540 662 0
270 -271 -637 -657 658 0
-270 271 0
-270 637 0
-270 657 0
-270 -658 0
271 601 -605 -632 633 0
-271 -601 0
-271 -633 0
-271 632 0
-271 605 0
272 274 570 0
272 273 274 0
272 274 563 0
-272 -274 0
-272 -273 -563 -570 0
273 -571 -572 573 0
-273 571 0
-273 572 0
-273 -573 0
274 -275 -552 -599 0
274 -275 -597 -599 0
-274 275 0
-274 599 0
-274 552 597 0
275 -276 598 0
-275 -598 0
-275 276 0
276 550 552 0
-276 -550 0
-276 -552 0
-110 198 277 0
-70 277 278 0
-70 -110 277 0
198 277 278 0
110 -277 -278 0
70 -198 -277 0
278 550 552 567 0
-278 -550 0
-278 -567 0
-278 -552 0
-221 279 -280 0
279 -280 -614 -640 0
-279 280 0
221 -279 614 0
221 -279 640 0
70 280 281 -282 0
-198 280 281 -282 0
-280 282 0
-280 -281 0
-70 198 -280 0
281 540 -662 0
-281 -540 0
-281 662 0
282 -469 628 0
282 -450 647 0
282 -450 -469 0
282 628 647 0
-282 469 -647 0
-282 450 -628 0
220 283 -284 -289 0
220 275 283 -284 0
-220 -283 0
-283 284 0
-275 -283 289 0
284 -286 288 0
284 285 -287 0
284 -286 -287 0
284 285 288 0
-284 287 -288 0
-284 -285 286 0
285 550 552 597 0
-285 -550 0
-285 -597 0
-285 -552 0
-138 286 419 0
-286 -419 0
138 -286 0
-276 287 -664 0
-287 664 0
276 -287 0
-171 288 -542 0
-288 542 0
171 -288 0
-138 289 420 0
-289 -420 0
138 -289 0
290 -291 -293 -295 -297 0
-290 297 0
-290 291 0
-290 295 0
-290 293 0
291 292 571 0
291 292 -563 0
291 292 -570 0
-291 -292 0
-291 563 570 -571 0
292 575 -576 -577 0
-292 577 0
-292 576 0
-292 -575 0
293 294 -634 0
293 294 552 617 0
-293 -294 0
-293 -617 634 0
-293 -552 634 0
294 -567 602 0
294 -593 602 0
-294 -602 0
-294 567 593 0
295 470 -634 648 0
295 -296 -470 -648 0
295 -296 470 648 0
295 -470 -634 -648 0
-295 -470 648 0
-295 470 -648 0
-295 296 634 0
296 552 567 0
-296 -552 0
-296 -567 0
297 298 553 -601 0
297 -552 -553 601 0
297 -552 553 -601 0
297 298 -553 601 0
-297 -553 -601 0
-297 553 601 0
-297 -298 552 0
298 -567 617 0
-298 567 0
-298 -617 0
299 -301 -303 -574 0
299 300 -301 -303 0
-299 303 0
-299 301 0
-299 -300 574 0
300 563 -571 0
-300 -563 0
-300 571 0
301 302 567 0
301 302 -593 -617 0
-301 -302 0
-301 -567 593 0
-301 -567 617 0
302 -526 631 655 0
302 -545 631 655 0
-302 -655 0
-302 -631 0
-302 526 545 0
303 304 -305 -549 658 0
303 304 -305 549 -658 0
-303 305 0
-303 549 658 0
-303 -304 0
-303 -549 -658 0
304 563 572 0
304 -563 564 0
-304 -563 -564 0
-304 563 -572 0
305 306 561 0
305 306 -560 0
305 306 562 0
-305 -306 0
-305 560 -561 -562 0
306 526 545 -655 0
306 526 545 -631 0
-306 -526 0
-306 -545 0
-306 631 655 0
307 -308 311 -312 0
307 -308 311 313 0
-307 308 0
-307 -311 0
-307 312 -313 0
-107 308 309 -310 0
-107 308 -309 310 0
220 308 309 -310 0
220 308 -309 310 0
-308 309 310 0
-308 -309 -310 0
107 -220 -308 0
309 668 669 0
309 625 -669 0
309 -625 669 0
-309 -625 -669 0
-309 625 -668 669 0
310 -447 -548 0
310 447 -547 548 0
-310 547 548 0
-310 447 -548 0
-310 -447 548 0
-246 311 -615 0
244 -246 311 0
246 -311 0
-244 -311 615 0
276 312 599 0
-276 312 666 0
-276 -312 -666 0
276 -312 -599 0
138 313 421 0
-138 313 543 0
-138 -313 -543 0
138 -313 -421 0
107 314 -315 -317 0
-220 314 -315 -317 0
-314 317 0
-314 315 0
-107 220 -314 0
315 -316 -550 0
228 315 -316 0
-315 316 0
-228 -315 550 0
-59 -278 316 0
110 221 316 0
221 -278 316 0
-59 110 316 0
-110 278 -316 0
59 -221 -316 0
-170 219 317 -318 0
170 219 317 318 0
-219 -317 0
-170 -317 318 0
170 -317 -318 0
-276 318 -562 0
-318 562 0
276 -318 0
319 -320 -334 -339 -344 0
-319 344 0
-319 320 0
-319 339 0
-319 334 0
320 -321 -327 -333 0
320 321 327 332 0
320 321 327 -333 0
320 -321 -327 332 0
-320 321 -327 0
-320 -321 327 0
-320 -332 333 0
321 -323 583 0
321 322 -323 585 0
-321 323 0
-321 -322 -583 0
-321 -583 -585 0
322 561 -595 0
-322 -561 0
-322 595 0
323 -324 -325 561 0
323 324 -325 326 0
-323 325 0
-323 324 -326 0
-323 -324 -561 0
324 -562 -596 0
-324 562 0
-324 596 0
-276 325 584 0
-325 -584 0
276 -325 0
326 -585 -595 0
-326 585 0
-326 595 0
327 -329 -330 405 0
327 -328 -329 -330 0
-327 330 0
-327 329 0
-327 328 -405 0
328 407 417 0
328 -383 407 0
-328 -407 0
-328 383 -417 0
-171 329 406 0
-329 -406 0
171 -329 0
330 331 407 0
330 -331 383 0
330 331 417 0
-330 -331 -383 0
-330 331 -407 -417 0
331 -384 -418 0
-331 384 0
-331 418 0
-276 332 667 0
188 -276 332 574 0
276 -332 0
-188 -332 -667 0
-332 -574 -667 0
-138 333 544 0
13 -138 333 396 0
138 -333 0
-13 -333 -544 0
-333 -396 -544 0
287 334 335 -337 0
-288 334 335 -337 0
-334 337 0
-334 -335 0
-287 288 -334 0
335 -336 -555 0
335 -555 557 -559 0
-335 555 0
-335 336 -557 0
-335 336 559 0
336 -554 556 -557 558 0
-336 557 0
-336 -558 0
-336 554 0
-336 -556 0
337 338 -659 0
-278 337 338 642 0
-337 -338 0
-337 -642 659 0
278 -337 659 0
-276 338 445 -623 0
171 -276 338 -623 0
276 -338 0
-338 623 0
-171 -338 -445 0
339 -340 343 567 0
339 -340 -341 343 0
-339 340 0
-339 -343 0
-339 341 -567 0
-138 -276 340 584 0
138 276 329 340 0
-138 -276 329 340 0
-329 -340 -584 0
-138 276 -340 0
276 -329 -340 0
138 -276 -340 0
341 342 -566 -586 0
341 342 565 -586 0
-341 586 0
-341 -342 0
-341 -565 566 0
342 568 -569 0
342 568 587 0
-342 -568 0
-342 569 -587 0
-59 221 343 0
221 343 575 -590 0
-221 -343 0
59 -343 -575 0
59 -343 590 0
-332 344 -345 -346 0
333 344 -345 -346 0
-344 346 0
-344 345 0
332 -333 -344 0
-285 -329 345 0
286 325 345 0
-285 325 345 0
286 -329 345 0
285 -286 -345 0
-325 329 -345 0
-275 346 348 0
289 346 -347 0
289 346 348 0
-275 346 -347 0
275 -289 -346 0
-346 347 -348 0
-276 347 -623 0
-347 623 0
276 -347 0
-171 348 -445 0
-348 445 0
171 -348 0
349 350 -354 -356 0
349 352 -354 -356 0
-349 356 0
-349 354 0
-349 -350 -352 0
-171 350 -443 0
171 350 351 0
-171 -350 443 0
171 -350 -351 0
-17 351 443 0
-17 351 393 0
17 -351 0
-351 -393 -443 0
-276 352 621 0
276 352 -353 0
-276 -352 -621 0
276 -352 353 0
-192 353 621 0
-192 353 571 0
192 -353 0
-353 -571 -621 0
35 -218 354 355 0
-35 -218 354 -355 0
218 -354 0
-35 -354 355 0
35 -354 -355 0
-210 355 550 0
355 -550 631 655 0
-355 -550 -631 0
210 -355 550 0
-355 -550 -655 0
318 356 -357 363 0
230 356 -357 363 0
-356 357 0
-356 -363 0
-230 -318 -356 0
6 357 358 359 -360 0
-6 357 -358 359 -360 0
-357 -359 0
6 -357 -358 0
-357 360 0
-6 -357 358 0
358 -550 -665 0
-203 358 550 0
203 -358 550 0
-358 -550 665 0
351 -353 359 0
-351 -359 0
353 -359 0
223 351 360 -361 0
223 -353 360 -361 0
-223 -360 0
-360 361 0
-351 353 -360 0
187 241 361 -362 0
241 361 -362 571 0
-361 362 0
-241 -361 0
-187 -361 -571 0
225 312 362 0
225 -313 362 0
-225 -362 0
-312 313 -362 0
350 352 363 0
-350 -363 0
-352 -363 0
-233 364 550 0
-233 364 631 655 0
233 -364 0
-364 -550 -655 0
-364 -550 -631 0
1 2 0
-1 -2 0
670 0

